p cnf 14 64
-5 9 10 0
-3 -5 -8 0
-4 -9 -14 0
9 -12 -13 0
2 6 -7 0
-4 6 -12 0
-2 -9 12 0
2 -12 -14 0
4 -5 11 0
-3 7 -14 0
8 13 -14 0
-9 10 -12 0
-2 7 10 0
-2 -6 10 0
8 10 13 0
1 -12 14 0
-1 -7 8 0
3 -7 -11 0
3 5 -13 0
12 13 14 0
-2 -5 14 0
-1 -4 -13 0
7 -9 12 0
3 -7 -9 0
-1 -13 -14 0
6 -11 13 0
1 -11 -12 0
-4 6 -14 0
-4 10 -11 0
-1 -10 -14 0
3 7 -12 0
-4 6 13 0
-1 -9 13 0
8 -10 11 0
-2 -3 11 0
4 -5 -13 0
-1 -2 10 0
-4 -11 -14 0
2 -10 -11 0
2 -3 -7 0
7 8 -11 0
1 2 -12 0
4 6 -10 0
4 -8 -9 0
4 -13 -14 0
-2 4 12 0
-3 6 -14 0
-2 8 12 0
-1 7 -8 0
3 -9 12 0
-4 7 8 0
3 -8 -12 0
11 12 14 0
-6 -8 -14 0
-4 -6 -13 0
-1 -7 -11 0
1 -6 -12 0
-1 -4 6 0
-4 6 14 0
-5 8 -13 0
5 9 -10 0
-5 -6 9 0
-1 3 -12 0
-2 3 8 0
